NAME : eu130.5216.tour
COMMENT : Length = 5216
COMMENT : Found by LKH-3 [Keld Helsgaun] Fri Oct 15 03:11:43 2021
TYPE : TOUR
DIMENSION : 100
TOUR_SECTION
1
12
19
36
98
96
43
56
37
71
16
86
27
54
92
30
76
2
90
46
28
62
41
91
95
99
39
33
55
65
50
23
9
14
75
26
49
59
70
40
3
51
21
82
87
31
35
64
68
25
48
18
97
58
15
60
47
61
84
85
17
52
80
63
81
4
57
93
11
74
53
10
66
8
13
45
100
22
38
77
32
42
83
34
94
88
72
6
20
89
7
67
69
79
5
44
73
78
29
24
-1
EOF
